240 5
10 10 10 10 10 

0 0 0 0 0 0 5 2 14 26 38 50 
0 0 0 0 0 0 2 3 4 
7 0 1 0 0 0 2 6 5 
7 0 9 0 0 0 2 6 5 
6 0 4 0 0 0 2 12 8 
7 0 9 0 0 0 1 7 
10 0 5 0 0 0 1 8 
3 0 3 0 0 0 1 9 
6 0 7 0 0 0 1 10 
1 0 4 0 0 0 1 11 
3 0 3 0 0 0 2 13 36 
1 0 5 0 0 0 1 13 
0 0 0 0 0 0 1 62 
0 0 0 0 0 0 1 15 
3 1 0 0 0 0 1 16 
9 4 0 0 0 0 2 20 17 
1 5 0 0 0 0 2 19 18 
2 6 0 0 0 0 2 24 21 
7 3 0 0 0 0 2 24 22 
7 7 0 0 0 0 2 24 22 
2 9 0 0 0 0 1 22 
4 5 0 0 0 0 1 23 
9 2 0 0 0 0 2 25 221 
10 8 0 0 0 0 1 25 
0 0 0 0 0 0 1 62 
0 0 0 0 0 0 1 27 
7 0 0 0 0 1 1 28 
3 0 0 0 0 5 2 32 29 
6 0 0 0 0 5 2 31 30 
6 0 0 0 0 9 1 33 
3 0 0 0 0 4 1 33 
10 0 0 0 0 3 1 33 
6 0 0 0 0 9 3 36 34 55 
6 0 0 0 0 1 1 35 
8 0 0 0 0 8 1 37 
7 0 0 0 0 5 1 37 
0 0 0 0 0 0 1 62 
0 0 0 0 0 0 2 39 42 
3 1 0 0 0 0 2 46 40 
10 9 0 0 0 0 1 41 
9 7 0 0 0 0 2 44 43 
4 6 0 0 0 0 2 46 43 
9 3 0 0 0 0 1 45 
6 4 0 0 0 0 1 45 
10 6 0 0 0 0 1 47 
2 4 0 0 0 0 1 47 
9 6 0 0 0 0 1 48 
6 4 0 0 0 0 1 49 
0 0 0 0 0 0 1 62 
0 0 0 0 0 0 1 51 
10 0 0 0 0 1 2 54 52 
8 0 0 0 0 9 1 53 
1 0 0 0 0 6 2 60 55 
3 0 0 0 0 7 3 60 59 57 
7 0 0 0 0 4 2 59 56 
2 0 0 0 0 4 1 57 
6 0 0 0 0 5 1 58 
10 0 0 0 0 4 1 61 
1 0 0 0 0 6 1 61 
5 0 0 0 0 4 1 61 
0 0 0 0 0 0 1 62 
0 0 0 0 0 0 4 63 75 107 139 
0 0 0 0 0 0 2 64 69 
5 0 0 1 0 0 2 71 65 
6 0 0 5 0 0 1 66 
6 0 0 4 0 0 2 73 67 
7 0 0 6 0 0 1 68 
3 0 0 6 0 0 1 70 
3 0 0 8 0 0 1 70 
6 0 0 8 0 0 1 72 
3 0 0 3 0 0 1 72 
3 0 0 5 0 0 1 74 
7 0 0 4 0 0 1 74 
0 0 0 0 0 0 2 171 193 
0 0 0 0 0 0 2 76 105 
3 0 1 3 1 0 1 77 
8 0 3 4 4 0 1 78 
7 0 4 4 4 0 1 79 
8 0 3 6 5 0 1 80 
5 0 10 3 5 0 2 104 81 
10 0 6 6 6 0 1 82 
1 0 4 6 4 0 1 83 
3 0 7 6 3 0 3 94 86 84 
3 0 5 3 7 0 2 88 85 
3 0 7 3 4 0 3 92 90 87 
8 0 6 2 4 0 2 92 91 
7 0 3 3 6 0 1 89 
2 0 4 6 4 0 1 89 
1 0 8 3 6 0 1 91 
5 0 4 1 4 0 1 91 
8 0 5 6 4 0 1 93 
1 0 4 10 7 0 1 93 
6 0 8 4 6 0 1 95 
7 0 6 7 6 0 1 95 
5 0 3 6 6 0 2 103 96 
5 0 8 5 8 0 1 97 
9 0 9 3 6 0 1 98 
2 0 1 4 4 0 1 99 
2 0 3 7 5 0 1 100 
8 0 3 5 1 0 1 101 
7 0 5 4 4 0 1 102 
6 0 5 10 8 0 1 106 
8 0 3 6 7 0 1 106 
5 0 7 10 5 0 1 106 
3 0 5 4 6 0 1 106 
0 0 0 0 0 0 1 229 
0 0 0 0 0 0 2 108 137 
4 0 1 1 0 2 1 109 
9 0 5 6 0 5 1 110 
5 0 3 4 0 10 1 111 
7 0 7 4 0 3 1 112 
1 0 3 6 0 5 2 136 113 
4 0 3 2 0 4 1 114 
1 0 9 3 0 5 2 135 115 
3 0 8 4 0 7 4 134 133 125 116 
9 0 4 2 0 7 1 117 
9 0 5 5 0 3 2 124 118 
3 0 5 6 0 5 1 119 
6 0 5 4 0 2 1 120 
7 0 5 3 0 6 2 132 121 
6 0 6 3 0 7 1 122 
10 0 2 5 0 4 1 123 
9 0 6 4 0 5 1 126 
4 0 4 5 0 3 1 126 
4 0 6 2 0 5 1 126 
3 0 4 7 0 5 1 127 
2 0 5 7 0 7 1 128 
3 0 3 5 0 7 1 129 
6 0 2 9 0 4 1 130 
3 0 8 7 0 3 1 131 
8 0 6 7 0 4 1 138 
7 0 5 4 0 6 1 138 
8 0 8 5 0 6 1 138 
6 0 4 6 0 4 1 138 
6 0 9 7 0 6 1 138 
4 0 4 9 0 5 1 138 
9 0 5 8 0 5 1 138 
0 0 0 0 0 0 1 229 
0 0 0 0 0 0 2 140 164 
7 1 2 5 0 0 1 141 
5 3 4 1 0 0 1 142 
1 7 7 5 0 0 1 143 
8 3 5 5 0 0 1 144 
6 5 6 3 0 0 2 156 145 
5 4 1 2 0 0 1 146 
10 3 5 9 0 0 1 147 
1 5 3 5 0 0 3 155 150 148 
6 3 3 6 0 0 2 152 149 
3 2 6 8 0 0 3 158 154 151 
9 3 4 5 0 0 2 158 157 
8 4 9 4 0 0 1 153 
6 5 2 3 0 0 1 153 
10 6 6 5 0 0 1 157 
2 6 10 3 0 0 1 157 
8 6 4 5 0 0 1 158 
8 8 8 3 0 0 1 157 
8 4 6 4 0 0 1 159 
6 5 10 4 0 0 1 159 
7 6 5 10 0 0 1 160 
7 8 7 4 0 0 2 169 161 
9 5 4 6 0 0 1 162 
3 9 3 5 0 0 1 163 
7 9 7 5 0 0 1 165 
7 5 3 8 0 0 1 165 
9 5 3 3 0 0 1 166 
6 3 3 5 0 0 1 167 
3 8 3 5 0 0 1 168 
9 4 4 8 0 0 1 170 
4 5 7 6 0 0 1 170 
0 0 0 0 0 0 1 229 
0 0 0 0 0 0 3 172 177 191 
4 1 1 0 0 0 1 173 
7 4 6 0 0 0 1 174 
1 5 3 0 0 0 1 175 
6 5 7 0 0 0 2 181 176 
2 4 5 0 0 0 2 188 178 
10 5 6 0 0 0 2 188 179 
4 7 7 0 0 0 1 179 
8 4 6 0 0 0 2 190 180 
4 6 9 0 0 0 1 182 
6 4 7 0 0 0 1 182 
3 5 4 0 0 0 1 183 
10 4 5 0 0 0 1 184 
3 5 3 0 0 0 1 185 
8 4 6 0 0 0 1 186 
8 5 9 0 0 0 1 187 
5 7 4 0 0 0 1 189 
9 6 2 0 0 0 1 189 
7 4 2 0 0 0 1 192 
10 7 5 0 0 0 1 192 
1 8 3 0 0 0 1 192 
0 0 0 0 0 0 1 229 
0 0 0 0 0 0 2 194 203 
3 0 0 0 1 0 1 195 
9 0 0 0 5 0 2 202 196 
6 0 0 0 4 0 2 201 197 
4 0 0 0 6 0 1 198 
4 0 0 0 4 0 1 199 
3 0 0 0 5 0 1 200 
5 0 0 0 7 0 1 204 
2 0 0 0 4 0 1 204 
2 0 0 0 7 0 1 204 
1 0 0 0 7 0 1 204 
0 0 0 0 0 0 2 205 217 
0 0 0 0 0 0 3 206 207 209 
10 0 0 0 0 1 1 208 
7 0 0 0 0 3 1 208 
6 0 0 0 0 6 2 214 210 
6 0 0 0 0 5 2 214 212 
6 0 0 0 0 5 1 211 
8 0 0 0 0 4 1 212 
3 0 0 0 0 7 1 213 
3 0 0 0 0 10 1 215 
5 0 0 0 0 2 1 215 
7 0 0 0 0 7 1 216 
0 0 0 0 0 0 1 229 
0 0 0 0 0 0 1 218 
10 0 1 0 0 0 1 219 
10 0 5 0 0 0 1 220 
10 0 3 0 0 0 3 223 222 221 
8 0 5 0 0 0 2 225 224 
2 0 4 0 0 0 2 225 224 
5 0 7 0 0 0 2 225 224 
7 0 4 0 0 0 1 226 
8 0 5 0 0 0 1 226 
3 0 7 0 0 0 1 227 
7 0 9 0 0 0 1 228 
0 0 0 0 0 0 1 229 
0 0 0 0 0 0 3 230 235 237 
8 1 0 0 0 0 1 231 
6 6 0 0 0 0 1 232 
5 6 0 0 0 0 2 239 233 
4 5 0 0 0 0 1 234 
2 8 0 0 0 0 1 236 
9 8 0 0 0 0 1 236 
5 4 0 0 0 0 1 238 
6 3 0 0 0 0 1 238 
2 2 0 0 0 0 1 240 
7 7 0 0 0 0 1 240 
0 0 0 0 0 0 0 
